File : Instances/p64
Used 65s
24154

0 0 1 1 0 0 1 1 0 0 1 0 1 0 0 0 0 0 0 0 1 1 0 0 0 0 0 0 1 1 
7 6 21 21 2 12 21 28 7 28 29 28 10 3 28 7 3 20 21 28 7 21 2 2 10 7 21 28 29 2 6 6 29 21 28 6 20 20 21 21 7 20 6 29 20 6 3 21 6 20 2 21 21 21 20 6 7 20 7 7 29 2 7 20 3 12 2 28 28 12 7 12 6 20 10 10 20 10 20 21 10 2 20 7 29 10 6 2 28 7 28 6 7 7 2 3 28 6 2 28 28 21 12 7 29 2 29 21 21 3 6 29 7 12 12 20 28 7 28 20 20 12 28 6 29 21 2 12 6 28 28 21 12 20 10 20 3 3 28 10 12 21 12 12 7 2 21 21 28 7 2 28 10 28 20 12 2 21 3 3 3 28 10 2 10 28 2 29 3 21 10 20 28 10 29 2 2 10 29 10 2 21 2 6 12 20 28 10 2 21 2 21 6 29 7 12 7 21 10 6 
